mapa = [|
         9,9,9,9,9|
         9,8,8,8,9|
         9,8,1,8,9|
         9,8,1,8,9|
         9,8,1,8,9|
         9,8,8,8,9|
         9,9,9,9,9|];
dimx = 7;
dimy = 5;
filav = 4;
colav = 2;
from = [1,2,3,4,6,7,8,9,11,12,13,14,16,17,18,19,21,22,23,24,26,27,28,29,1,2,3,4,6,7,8,9,11,12,13,14,16,17,18,19,21,22,23,24,26,27,28,29,5,10,15,20,25,30,31,32,33,34];
to = [2,3,4,5,7,8,9,10,12,13,14,15,17,18,19,20,22,23,24,25,27,28,29,30,6,7,8,9,11,12,13,14,16,17,18,19,21,22,23,24,26,27,28,29,31,32,33,34,10,15,20,25,30,35,32,33,34,35];
